10	5
0	2	2	1
1	2	6	3
2	1	5
3	1	10
4	0
5	1	6
6	1	8
7	1	11
8	1	7
9	1	11
10	1	11
11	0
0	0	0	0	0	0	0
1	2	3	0	0	0	0
2	8	0	0	0	3	0
3	10	3	2	5	0	0
4	3	5	0	0	0	0
5	9	5	1	5	0	0
6	8	0	5	0	2	4
7	8	0	1	1	5	3
8	7	0	0	0	0	5
9	8	2	1	0	2	0
10	5	5	1	2	2	2
11	0	0	0	0	0	0
5	5	5	5	5
